QBPP_HJ+_35_025_20_5
35 91 2190
4 21 25 18 49 48 25 3 21 46 9 4 17 8 48 22 44 23 6 28 16 28 19 37 6 42 1 36 44 47 48 46 11 18 41
    0    0    0    0    0   53    0   25    0    8    0    0    0   94    0   47    0    0    0   33    0    0    0   74   19    0    0   11   62   24    0   21    0    0    0
    0    0    0    0    0    0    0    0    0    0    0    0    0   17    0    0   60    0    0   35    0    0    0    0    0    0    0    0   97    0    0    0    0    1    0
    0    0    0   69    0    0    0    0    0    0    0    0    5    0    6    0    0   29   70    0    0    0    0    0    0    0   87    0    0    0   40   54    0    0    0
    0    0   69    0    0    0   57    0    0    0    0    0   59    0    0    0    0    0    0    0    0    0    0    0    0    0    0    0   30   76    0   84   69    0    0
    0    0    0    0    0    0   18    0    0  100    0    0    0    0    0    0   51   68   40    0    0    0    0    0    0   46   70    0    0    0    0    0    0    0    0
   53    0    0    0    0    0    0    0    0    0    0    0    0   61    0    0    0    0    0   98   47   36    0    0    0    0   28    0    0    0   78    0    0   38   13
    0    0    0   57   18    0    0    0    0   91    0    0    0    0    0    0    0    0    0    0    0    0    0    0    0    0    0    0    0   44    0    0   72    0    0
   25    0    0    0    0    0    0    0   65   22    0    0    0   27   76    0    0    0    0    0    0    0    0   26    0   72    0    0   94    9    0   28    0    0    0
    0    0    0    0    0    0    0   65    0   80   50    0   92    0    0   41    0   64    0    4   79    0    0   53    0    0    0    0   98    0    0    0    0   95    0
    8    0    0    0  100    0   91   22   80    0    0   20   32   92    0    0    0    0    0    0    0   82    0    0   85    0    0   64    0    0    0   94   35    0    0
    0    0    0    0    0    0    0    0   50    0    0    0    0    0    0   90   75   38    0    0    0   96   68    0    0    0    0    0    0  100    0   62    0    0    0
    0    0    0    0    0    0    0    0    0   20    0    0    0   93    0    0    0   96   18    0    0    0    1    0    0    0   95   98    0   15   53    0    0    0   42
    0    0    5   59    0    0    0    0   92   32    0    0    0    0    0   74    0    0    0   67    0    0    0    0    0    0    0   78    0    0    0   22    0    0    0
   94   17    0    0    0   61    0   27    0   92    0   93    0    0    0    0    0    0   68    0   20    0    0    0    0    0    0    0    0    0   37    0    0    6    0
    0    0    6    0    0    0    0   76    0    0    0    0    0    0    0   60   90    0   12    0   26   66    0    0    0    0    0    0    0    0    0    0    0    0    0
   47    0    0    0    0    0    0    0   41    0   90    0   74    0   60    0    0    0    0    0   52    0   34    0    0   59   56   37    0   56    0    0   19    0    0
    0   60    0    0   51    0    0    0    0    0   75    0    0    0   90    0    0    0    0    0    0    0    0    0    0    0   25   93    0   21    0   96    0    0    0
    0    0   29    0   68    0    0    0   64    0   38   96    0    0    0    0    0    0   84    0    0   11    0   88   27    0    0    0   24   70   46    0    0    0    0
    0    0   70    0   40    0    0    0    0    0    0   18    0   68   12    0    0   84    0    0   78    0    0   59    0    0    0    0    0    0    4    0    0   17    0
   33   35    0    0    0   98    0    0    4    0    0    0   67    0    0    0    0    0    0    0   41    5    0    0   59    0    0   28    0    0   59    4    0    0    0
    0    0    0    0    0   47    0    0   79    0    0    0    0   20   26   52    0    0   78   41    0    0   72   64    0    0    0    0    0    0    0    0    0   45   82
    0    0    0    0    0   36    0    0    0   82   96    0    0    0   66    0    0   11    0    5    0    0   70    0    0    0   73   64    0    0    0    0   60    0    0
    0    0    0    0    0    0    0    0    0    0   68    1    0    0    0   34    0    0    0    0   72   70    0    0    0   78    9    0    0    0    0    0   77    0    0
   74    0    0    0    0    0    0   26   53    0    0    0    0    0    0    0    0   88   59    0   64    0    0    0    0    0    0    0    0    0    0    0   12   52    0
   19    0    0    0    0    0    0    0    0   85    0    0    0    0    0    0    0   27    0   59    0    0    0    0    0    0    0   27    0    0    0    0    0    0   16
    0    0    0    0   46    0    0   72    0    0    0    0    0    0    0   59    0    0    0    0    0    0   78    0    0    0   50   26    0    0    0    0    0    0   56
    0    0   87    0   70   28    0    0    0    0    0   95    0    0    0   56   25    0    0    0    0   73    9    0    0   50    0   95    0    0    0    0   56    0   28
   11    0    0    0    0    0    0    0    0   64    0   98   78    0    0   37   93    0    0   28    0   64    0    0   27   26   95    0    5    0    0   33    0    2    0
   62   97    0   30    0    0    0   94   98    0    0    0    0    0    0    0    0   24    0    0    0    0    0    0    0    0    0    5    0    0    0    0   94   83    0
   24    0    0   76    0    0   44    9    0    0  100   15    0    0    0   56   21   70    0    0    0    0    0    0    0    0    0    0    0    0    0    0    0   83    0
    0    0   40    0    0   78    0    0    0    0    0   53    0   37    0    0    0   46    4   59    0    0    0    0    0    0    0    0    0    0    0    0   13   41    0
   21    0   54   84    0    0    0   28    0   94   62    0   22    0    0    0   96    0    0    4    0    0    0    0    0    0    0   33    0    0    0    0   86    0   75
    0    0    0   69    0    0   72    0    0   35    0    0    0    0    0   19    0    0    0    0    0   60   77   12    0    0   56    0   94    0   13   86    0    0    0
    0    1    0    0    0   38    0    0   95    0    0    0    0    6    0    0    0    0   17    0   45    0    0   52    0    0    0    2   83   83   41    0    0    0   82
    0    0    0    0    0   13    0    0    0    0    0   42    0    0    0    0    0    0    0    0   82    0    0    0   16   56   28    0    0    0    0   75    0   82    0
